certificates/rado_a13_c163_N48.cnf
c Rad2 upper bound instance: x1 + 13*x2 - x3 = 163, interval [1,48]
p cnf 48 350
1 7 13 0
-1 -7 -13 0
1 14 20 0
-1 -14 -20 0
1 15 33 0
-1 -15 -33 0
1 16 46 0
-1 -16 -46 0
2 8 13 0
-2 -8 -13 0
2 14 21 0
-2 -14 -21 0
2 15 34 0
-2 -15 -34 0
2 16 47 0
-2 -16 -47 0
3 9 13 0
-3 -9 -13 0
3 14 22 0
-3 -14 -22 0
3 15 35 0
-3 -15 -35 0
3 16 48 0
-3 -16 -48 0
4 10 13 0
-4 -10 -13 0
4 14 23 0
-4 -14 -23 0
4 15 36 0
-4 -15 -36 0
5 11 13 0
-5 -11 -13 0
5 14 24 0
-5 -14 -24 0
5 15 37 0
-5 -15 -37 0
6 12 13 0
-6 -12 -13 0
6 14 25 0
-6 -14 -25 0
6 15 38 0
-6 -15 -38 0
7 13 0
-7 -13 0
7 14 26 0
-7 -14 -26 0
7 15 39 0
-7 -15 -39 0
1 8 12 0
-1 -8 -12 0
8 13 14 0
-8 -13 -14 0
8 14 27 0
-8 -14 -27 0
8 15 40 0
-8 -15 -40 0
2 9 12 0
-2 -9 -12 0
9 13 15 0
-9 -13 -15 0
9 14 28 0
-9 -14 -28 0
9 15 41 0
-9 -15 -41 0
3 10 12 0
-3 -10 -12 0
10 13 16 0
-10 -13 -16 0
10 14 29 0
-10 -14 -29 0
10 15 42 0
-10 -15 -42 0
4 11 12 0
-4 -11 -12 0
11 13 17 0
-11 -13 -17 0
11 14 30 0
-11 -14 -30 0
11 15 43 0
-11 -15 -43 0
5 12 0
-5 -12 0
12 13 18 0
-12 -13 -18 0
12 14 31 0
-12 -14 -31 0
12 15 44 0
-12 -15 -44 0
13 19 0
-13 -19 0
13 14 32 0
-13 -14 -32 0
13 15 45 0
-13 -15 -45 0
7 12 14 0
-7 -12 -14 0
13 14 20 0
-13 -14 -20 0
14 33 0
-14 -33 0
14 15 46 0
-14 -15 -46 0
8 12 15 0
-8 -12 -15 0
13 15 21 0
-13 -15 -21 0
14 15 34 0
-14 -15 -34 0
15 47 0
-15 -47 0
9 12 16 0
-9 -12 -16 0
13 16 22 0
-13 -16 -22 0
14 16 35 0
-14 -16 -35 0
15 16 48 0
-15 -16 -48 0
10 12 17 0
-10 -12 -17 0
13 17 23 0
-13 -17 -23 0
14 17 36 0
-14 -17 -36 0
11 12 18 0
-11 -12 -18 0
13 18 24 0
-13 -18 -24 0
14 18 37 0
-14 -18 -37 0
12 19 0
-12 -19 0
13 19 25 0
-13 -19 -25 0
14 19 38 0
-14 -19 -38 0
12 13 20 0
-12 -13 -20 0
13 20 26 0
-13 -20 -26 0
14 20 39 0
-14 -20 -39 0
1 11 21 0
-1 -11 -21 0
12 14 21 0
-12 -14 -21 0
13 21 27 0
-13 -21 -27 0
14 21 40 0
-14 -21 -40 0
2 11 22 0
-2 -11 -22 0
12 15 22 0
-12 -15 -22 0
13 22 28 0
-13 -22 -28 0
14 22 41 0
-14 -22 -41 0
3 11 23 0
-3 -11 -23 0
12 16 23 0
-12 -16 -23 0
13 23 29 0
-13 -23 -29 0
14 23 42 0
-14 -23 -42 0
4 11 24 0
-4 -11 -24 0
12 17 24 0
-12 -17 -24 0
13 24 30 0
-13 -24 -30 0
14 24 43 0
-14 -24 -43 0
5 11 25 0
-5 -11 -25 0
12 18 25 0
-12 -18 -25 0
13 25 31 0
-13 -25 -31 0
14 25 44 0
-14 -25 -44 0
6 11 26 0
-6 -11 -26 0
12 19 26 0
-12 -19 -26 0
13 26 32 0
-13 -26 -32 0
14 26 45 0
-14 -26 -45 0
7 11 27 0
-7 -11 -27 0
12 20 27 0
-12 -20 -27 0
13 27 33 0
-13 -27 -33 0
14 27 46 0
-14 -27 -46 0
8 11 28 0
-8 -11 -28 0
12 21 28 0
-12 -21 -28 0
13 28 34 0
-13 -28 -34 0
14 28 47 0
-14 -28 -47 0
9 11 29 0
-9 -11 -29 0
12 22 29 0
-12 -22 -29 0
13 29 35 0
-13 -29 -35 0
14 29 48 0
-14 -29 -48 0
10 11 30 0
-10 -11 -30 0
12 23 30 0
-12 -23 -30 0
13 30 36 0
-13 -30 -36 0
11 31 0
-11 -31 0
12 24 31 0
-12 -24 -31 0
13 31 37 0
-13 -31 -37 0
11 12 32 0
-11 -12 -32 0
12 25 32 0
-12 -25 -32 0
13 32 38 0
-13 -32 -38 0
11 13 33 0
-11 -13 -33 0
12 26 33 0
-12 -26 -33 0
13 33 39 0
-13 -33 -39 0
1 10 34 0
-1 -10 -34 0
11 14 34 0
-11 -14 -34 0
12 27 34 0
-12 -27 -34 0
13 34 40 0
-13 -34 -40 0
2 10 35 0
-2 -10 -35 0
11 15 35 0
-11 -15 -35 0
12 28 35 0
-12 -28 -35 0
13 35 41 0
-13 -35 -41 0
3 10 36 0
-3 -10 -36 0
11 16 36 0
-11 -16 -36 0
12 29 36 0
-12 -29 -36 0
13 36 42 0
-13 -36 -42 0
4 10 37 0
-4 -10 -37 0
11 17 37 0
-11 -17 -37 0
12 30 37 0
-12 -30 -37 0
13 37 43 0
-13 -37 -43 0
5 10 38 0
-5 -10 -38 0
11 18 38 0
-11 -18 -38 0
12 31 38 0
-12 -31 -38 0
13 38 44 0
-13 -38 -44 0
6 10 39 0
-6 -10 -39 0
11 19 39 0
-11 -19 -39 0
12 32 39 0
-12 -32 -39 0
13 39 45 0
-13 -39 -45 0
7 10 40 0
-7 -10 -40 0
11 20 40 0
-11 -20 -40 0
12 33 40 0
-12 -33 -40 0
13 40 46 0
-13 -40 -46 0
8 10 41 0
-8 -10 -41 0
11 21 41 0
-11 -21 -41 0
12 34 41 0
-12 -34 -41 0
13 41 47 0
-13 -41 -47 0
9 10 42 0
-9 -10 -42 0
11 22 42 0
-11 -22 -42 0
12 35 42 0
-12 -35 -42 0
13 42 48 0
-13 -42 -48 0
10 43 0
-10 -43 0
11 23 43 0
-11 -23 -43 0
12 36 43 0
-12 -36 -43 0
10 11 44 0
-10 -11 -44 0
11 24 44 0
-11 -24 -44 0
12 37 44 0
-12 -37 -44 0
10 12 45 0
-10 -12 -45 0
11 25 45 0
-11 -25 -45 0
12 38 45 0
-12 -38 -45 0
10 13 46 0
-10 -13 -46 0
11 26 46 0
-11 -26 -46 0
12 39 46 0
-12 -39 -46 0
1 9 47 0
-1 -9 -47 0
10 14 47 0
-10 -14 -47 0
11 27 47 0
-11 -27 -47 0
12 40 47 0
-12 -40 -47 0
2 9 48 0
-2 -9 -48 0
10 15 48 0
-10 -15 -48 0
11 28 48 0
-11 -28 -48 0
12 41 48 0
-12 -41 -48 0
