certificates/rado_a13_c163_N48.drat
10 15 -48 0
-47 -48 0
-48 0
-43 47 0
-10 -15 0
d -10 -42 -15 0
47 0
-15 0
16 0
10 0
-2 0
-13 0
-43 0
-14 0
9 0
34 0
8 0
7 0
19 0
45 0
21 0
37 0
32 0
20 0
42 0
11 0
33 0
29 0
24 0
46 0
0
